9218.0
0 0 0 1 0 1 1 0 0 1 0 0 1 1 0 1 0 0 1 1 
5 5 5 5 5 5 5 5 19 19 19 19 19 19 19 19 19 12 13 13 12 13 12 13 12 15 9 9 9 9 9 9 9 9 18 18 18 18 18 18 18 18 18 18 5 5 19 12 12 15 15 3 6 18 5 15 3 3 3 6 18 15 15 13 3 13 15 5 6 5 18 18 6 3 3 15 3 6 6 15 18 19 13 15 15 3 3 6 15 3 15 15 18 15 15 18 3 6 3 5 